projet_m2_wvcp/original_wvcp_dzn/r05.clq.dzn
cliques=[{9,7,1,0,2,8,6,10,4,5,3},{40,21,111,51,1,79,62,12,122,133,101},{9,7,1,0,2,8,6,10,4,5,3},{113,90,124,41,81,14,134,63,3,74,103,23},{9,7,1,0,2,8,6,10,4,5,3},{106,138,93,76,84,54,117,71,44,5},{9,7,1,0,2,8,6,10,4,5,3},{18,7,95,65,34,139,56,25,85,46,128},{9,7,1,0,2,8,6,10,4,5,3},{77,9,108,27,97,73,87,36,130,48,58},{88,66,78,37,119,59,141,49,98,28,10,109,131},{121,67,100,61,11,39,30,20,132},{40,21,111,51,1,79,62,12,122,133,101},{18,17,19,12,11,13,14,16,15},{113,90,124,41,81,14,134,63,3,74,103,23},{33,24,83,126,53,91,115,69,75,104,136,15},{18,17,19,12,11,13,14,16,15},{18,17,19,12,11,13,14,16,15},{18,7,95,65,34,139,56,25,85,46,128},{18,17,19,12,11,13,14,16,15},{121,67,100,61,11,39,30,20,132},{40,21,111,51,1,79,62,12,122,133,101},{123,68,102,31,2,13,52,80,112,22},{113,90,124,41,81,14,134,63,3,74,103,23},{33,24,83,126,53,91,115,69,75,104,136,15},{18,7,95,65,34,139,56,25,85,46,128},{21,24,27,25,28,26,20,22,23},{77,9,108,27,97,73,87,36,130,48,58},{88,66,78,37,119,59,141,49,98,28,10,109,131},{33,37,34,29,32,31,36,30,35},{33,37,34,29,32,31,36,30,35},{33,37,34,29,32,31,36,30,35},{33,37,34,29,32,31,36,30,35},{33,24,83,126,53,91,115,69,75,104,136,15},{18,7,95,65,34,139,56,25,85,46,128},{33,37,34,29,32,31,36,30,35},{77,9,108,27,97,73,87,36,130,48,58},{88,66,78,37,119,59,141,49,98,28,10,109,131},{43,40,45,41,42,47,49,38,39,44,46,48},{43,40,45,41,42,47,49,38,39,44,46,48},{43,40,45,41,42,47,49,38,39,44,46,48},{43,40,45,41,42,47,49,38,39,44,46,48},{43,40,45,41,42,47,49,38,39,44,46,48},{43,40,45,41,42,47,49,38,39,44,46,48},{43,40,45,41,42,47,49,38,39,44,46,48},{43,40,45,41,42,47,49,38,39,44,46,48},{43,40,45,41,42,47,49,38,39,44,46,48},{43,40,45,41,42,47,49,38,39,44,46,48},{43,40,45,41,42,47,49,38,39,44,46,48},{88,66,78,37,119,59,141,49,98,28,10,109,131},{57,50,51,59,54,56,53,52,55,58},{40,21,111,51,1,79,62,12,122,133,101},{57,50,51,59,54,56,53,52,55,58},{33,24,83,126,53,91,115,69,75,104,136,15},{106,138,93,76,84,54,117,71,44,5},{57,50,51,59,54,56,53,52,55,58},{18,7,95,65,34,139,56,25,85,46,128},{57,50,51,59,54,56,53,52,55,58},{77,9,108,27,97,73,87,36,130,48,58},{88,66,78,37,119,59,141,49,98,28,10,109,131},{50,60,29,0,120,89,38,99,110},{121,67,100,61,11,39,30,20,132},{40,21,111,51,1,79,62,12,122,133,101},{113,90,124,41,81,14,134,63,3,74,103,23},{17,94,45,127,6,55,64},{18,7,95,65,34,139,56,25,85,46,128},{88,66,78,37,119,59,141,49,98,28,10,109,131},{121,67,100,61,11,39,30,20,132},{123,68,102,31,2,13,52,80,112,22},{33,24,83,126,53,91,115,69,75,104,136,15},{43,92,70,105,4,16,137,116},{106,138,93,76,84,54,117,71,44,5},{140,19,47,96,129,8,72,35},{77,9,108,27,97,73,87,36,130,48,58},{113,90,124,41,81,14,134,63,3,74,103,23},{33,24,83,126,53,91,115,69,75,104,136,15},{106,138,93,76,84,54,117,71,44,5},{77,9,108,27,97,73,87,36,130,48,58},{88,66,78,37,119,59,141,49,98,28,10,109,131},{40,21,111,51,1,79,62,12,122,133,101},{88,86,81,83,79,84,87,82,85,80},{113,90,124,41,81,14,134,63,3,74,103,23},{88,86,81,83,79,84,87,82,85,80},{88,86,81,83,79,84,87,82,85,80},{88,86,81,83,79,84,87,82,85,80},{18,7,95,65,34,139,56,25,85,46,128},{88,86,81,83,79,84,87,82,85,80},{88,86,81,83,79,84,87,82,85,80},{88,66,78,37,119,59,141,49,98,28,10,109,131},{90,92,94,95,93,98,97,89,91,96},{90,92,94,95,93,98,97,89,91,96},{90,92,94,95,93,98,97,89,91,96},{90,92,94,95,93,98,97,89,91,96},{90,92,94,95,93,98,97,89,91,96},{90,92,94,95,93,98,97,89,91,96},{18,7,95,65,34,139,56,25,85,46,128},{90,92,94,95,93,98,97,89,91,96},{90,92,94,95,93,98,97,89,91,96},{88,66,78,37,119,59,141,49,98,28,10,109,131},{107,100,106,108,105,102,99,101,104,109,103},{107,100,106,108,105,102,99,101,104,109,103},{40,21,111,51,1,79,62,12,122,133,101},{107,100,106,108,105,102,99,101,104,109,103},{113,90,124,41,81,14,134,63,3,74,103,23},{33,24,83,126,53,91,115,69,75,104,136,15},{107,100,106,108,105,102,99,101,104,109,103},{107,100,106,108,105,102,99,101,104,109,103},{107,100,106,108,105,102,99,101,104,109,103},{107,100,106,108,105,102,99,101,104,109,103},{88,66,78,37,119,59,141,49,98,28,10,109,131},{113,118,111,119,117,115,114,112,110,116},{40,21,111,51,1,79,62,12,122,133,101},{113,118,111,119,117,115,114,112,110,116},{113,90,124,41,81,14,134,63,3,74,103,23},{113,118,111,119,117,115,114,112,110,116},{33,24,83,126,53,91,115,69,75,104,136,15},{113,118,111,119,117,115,114,112,110,116},{106,138,93,76,84,54,117,71,44,5},{113,118,111,119,117,115,114,112,110,116},{88,66,78,37,119,59,141,49,98,28,10,109,131},{121,124,123,127,120,126,125,129,122,128,130,131},{121,124,123,127,120,126,125,129,122,128,130,131},{40,21,111,51,1,79,62,12,122,133,101},{121,124,123,127,120,126,125,129,122,128,130,131},{121,124,123,127,120,126,125,129,122,128,130,131},{121,124,123,127,120,126,125,129,122,128,130,131},{121,124,123,127,120,126,125,129,122,128,130,131},{121,124,123,127,120,126,125,129,122,128,130,131},{121,124,123,127,120,126,125,129,122,128,130,131},{121,124,123,127,120,126,125,129,122,128,130,131},{121,124,123,127,120,126,125,129,122,128,130,131},{88,66,78,37,119,59,141,49,98,28,10,109,131},{121,67,100,61,11,39,30,20,132},{40,21,111,51,1,79,62,12,122,133,101},{113,90,124,41,81,14,134,63,3,74,103,23},{135,140,138,141,139,133,134,137,136,132},{33,24,83,126,53,91,115,69,75,104,136,15},{135,140,138,141,139,133,134,137,136,132},{106,138,93,76,84,54,117,71,44,5},{18,7,95,65,34,139,56,25,85,46,128},{135,140,138,141,139,133,134,137,136,132},{88,66,78,37,119,59,141,49,98,28,10,109,131}];
nr_cliques=142;
