projet_m2_wvcp/original_wvcp_dzn/r05.dzn
name="r05";
nr_vertices=142;
nr_edges=1266;
neighborhoods=[{1,2,3,4,5,6,7,8,9,10,29,38,50,60,89,99,110,120},{0,2,3,4,5,6,7,8,9,10,12,21,40,51,62,79,101,111,122,133},{0,1,3,4,5,6,7,8,9,10,13,22,31,52,68,80,102,112,123},{0,1,2,4,5,6,7,8,9,10,14,23,41,63,74,81,90,103,113,124,134},{0,1,2,3,5,6,7,8,9,10,16,43,70,92,105,116,137},{0,1,2,3,4,6,7,8,9,10,44,54,71,76,84,93,106,117,138},{0,1,2,3,4,5,7,8,9,10,17,45,55,64,94,127},{0,1,2,3,4,5,6,8,9,10,18,25,34,46,56,65,85,95,128,139},{0,1,2,3,4,5,6,7,9,10,19,35,47,72,96,129,140},{0,1,2,3,4,5,6,7,8,10,27,36,48,58,73,77,87,97,108,130},{0,1,2,3,4,5,6,7,8,9,28,37,49,59,66,78,88,98,109,119,131,141},{12,13,14,15,16,17,18,19,20,30,39,61,67,100,121,132},{1,11,13,14,15,16,17,18,19,21,40,51,62,79,101,111,122,133},{2,11,12,14,15,16,17,18,19,22,31,52,68,80,102,112,123},{3,11,12,13,15,16,17,18,19,23,41,63,74,81,90,103,113,124,134},{11,12,13,14,16,17,18,19,24,33,53,69,75,83,91,104,115,126,136},{4,11,12,13,14,15,17,18,19,43,70,92,105,116,137},{6,11,12,13,14,15,16,18,19,45,55,64,94,127},{7,11,12,13,14,15,16,17,19,25,34,46,56,65,85,95,128,139},{8,11,12,13,14,15,16,17,18,35,47,72,96,129,140},{11,21,22,23,24,25,26,27,28,30,39,61,67,100,121,132},{1,12,20,22,23,24,25,26,27,28,40,51,62,79,101,111,122,133},{2,13,20,21,23,24,25,26,27,28,31,52,68,80,102,112,123},{3,14,20,21,22,24,25,26,27,28,41,63,74,81,90,103,113,124,134},{15,20,21,22,23,25,26,27,28,33,53,69,75,83,91,104,115,126,136},{7,18,20,21,22,23,24,26,27,28,34,46,56,65,85,95,128,139},{20,21,22,23,24,25,27,28,57,86,107,118},{9,20,21,22,23,24,25,26,28,36,48,58,73,77,87,97,108,130},{10,20,21,22,23,24,25,26,27,37,49,59,66,78,88,98,109,119,131,141},{0,30,31,32,33,34,35,36,37,38,50,60,89,99,110,120},{11,20,29,31,32,33,34,35,36,37,39,61,67,100,121,132},{2,13,22,29,30,32,33,34,35,36,37,52,68,80,102,112,123},{29,30,31,33,34,35,36,37,42,82,114,125,135},{15,24,29,30,31,32,34,35,36,37,53,69,75,83,91,104,115,126,136},{7,18,25,29,30,31,32,33,35,36,37,46,56,65,85,95,128,139},{8,19,29,30,31,32,33,34,36,37,47,72,96,129,140},{9,27,29,30,31,32,33,34,35,37,48,58,73,77,87,97,108,130},{10,28,29,30,31,32,33,34,35,36,49,59,66,78,88,98,109,119,131,141},{0,29,39,40,41,42,43,44,45,46,47,48,49,50,60,89,99,110,120},{11,20,30,38,40,41,42,43,44,45,46,47,48,49,61,67,100,121,132},{1,12,21,38,39,41,42,43,44,45,46,47,48,49,51,62,79,101,111,122,133},{3,14,23,38,39,40,42,43,44,45,46,47,48,49,63,74,81,90,103,113,124,134},{32,38,39,40,41,43,44,45,46,47,48,49,82,114,125,135},{4,16,38,39,40,41,42,44,45,46,47,48,49,70,92,105,116,137},{5,38,39,40,41,42,43,45,46,47,48,49,54,71,76,84,93,106,117,138},{6,17,38,39,40,41,42,43,44,46,47,48,49,55,64,94,127},{7,18,25,34,38,39,40,41,42,43,44,45,47,48,49,56,65,85,95,128,139},{8,19,35,38,39,40,41,42,43,44,45,46,48,49,72,96,129,140},{9,27,36,38,39,40,41,42,43,44,45,46,47,49,58,73,77,87,97,108,130},{10,28,37,38,39,40,41,42,43,44,45,46,47,48,59,66,78,88,98,109,119,131,141},{0,29,38,51,52,53,54,55,56,57,58,59,60,89,99,110,120},{1,12,21,40,50,52,53,54,55,56,57,58,59,62,79,101,111,122,133},{2,13,22,31,50,51,53,54,55,56,57,58,59,68,80,102,112,123},{15,24,33,50,51,52,54,55,56,57,58,59,69,75,83,91,104,115,126,136},{5,44,50,51,52,53,55,56,57,58,59,71,76,84,93,106,117,138},{6,17,45,50,51,52,53,54,56,57,58,59,64,94,127},{7,18,25,34,46,50,51,52,53,54,55,57,58,59,65,85,95,128,139},{26,50,51,52,53,54,55,56,58,59,86,107,118},{9,27,36,48,50,51,52,53,54,55,56,57,59,73,77,87,97,108,130},{10,28,37,49,50,51,52,53,54,55,56,57,58,66,78,88,98,109,119,131,141},{0,29,38,50,61,62,63,64,65,66,89,99,110,120},{11,20,30,39,60,62,63,64,65,66,67,100,121,132},{1,12,21,40,51,60,61,63,64,65,66,79,101,111,122,133},{3,14,23,41,60,61,62,64,65,66,74,81,90,103,113,124,134},{6,17,45,55,60,61,62,63,65,66,94,127},{7,18,25,34,46,56,60,61,62,63,64,66,85,95,128,139},{10,28,37,49,59,60,61,62,63,64,65,78,88,98,109,119,131,141},{11,20,30,39,61,68,69,70,71,72,73,100,121,132},{2,13,22,31,52,67,69,70,71,72,73,80,102,112,123},{15,24,33,53,67,68,70,71,72,73,75,83,91,104,115,126,136},{4,16,43,67,68,69,71,72,73,92,105,116,137},{5,44,54,67,68,69,70,72,73,76,84,93,106,117,138},{8,19,35,47,67,68,69,70,71,73,96,129,140},{9,27,36,48,58,67,68,69,70,71,72,77,87,97,108,130},{3,14,23,41,63,75,76,77,78,81,90,103,113,124,134},{15,24,33,53,69,74,76,77,78,83,91,104,115,126,136},{5,44,54,71,74,75,77,78,84,93,106,117,138},{9,27,36,48,58,73,74,75,76,78,87,97,108,130},{10,28,37,49,59,66,74,75,76,77,88,98,109,119,131,141},{1,12,21,40,51,62,80,81,82,83,84,85,86,87,88,101,111,122,133},{2,13,22,31,52,68,79,81,82,83,84,85,86,87,88,102,112,123},{3,14,23,41,63,74,79,80,82,83,84,85,86,87,88,90,103,113,124,134},{32,42,79,80,81,83,84,85,86,87,88,114,125,135},{15,24,33,53,69,75,79,80,81,82,84,85,86,87,88,91,104,115,126,136},{5,44,54,71,76,79,80,81,82,83,85,86,87,88,93,106,117,138},{7,18,25,34,46,56,65,79,80,81,82,83,84,86,87,88,95,128,139},{26,57,79,80,81,82,83,84,85,87,88,107,118},{9,27,36,48,58,73,77,79,80,81,82,83,84,85,86,88,97,108,130},{10,28,37,49,59,66,78,79,80,81,82,83,84,85,86,87,98,109,119,131,141},{0,29,38,50,60,90,91,92,93,94,95,96,97,98,99,110,120},{3,14,23,41,63,74,81,89,91,92,93,94,95,96,97,98,103,113,124,134},{15,24,33,53,69,75,83,89,90,92,93,94,95,96,97,98,104,115,126,136},{4,16,43,70,89,90,91,93,94,95,96,97,98,105,116,137},{5,44,54,71,76,84,89,90,91,92,94,95,96,97,98,106,117,138},{6,17,45,55,64,89,90,91,92,93,95,96,97,98,127},{7,18,25,34,46,56,65,85,89,90,91,92,93,94,96,97,98,128,139},{8,19,35,47,72,89,90,91,92,93,94,95,97,98,129,140},{9,27,36,48,58,73,77,87,89,90,91,92,93,94,95,96,98,108,130},{10,28,37,49,59,66,78,88,89,90,91,92,93,94,95,96,97,109,119,131,141},{0,29,38,50,60,89,100,101,102,103,104,105,106,107,108,109,110,120},{11,20,30,39,61,67,99,101,102,103,104,105,106,107,108,109,121,132},{1,12,21,40,51,62,79,99,100,102,103,104,105,106,107,108,109,111,122,133},{2,13,22,31,52,68,80,99,100,101,103,104,105,106,107,108,109,112,123},{3,14,23,41,63,74,81,90,99,100,101,102,104,105,106,107,108,109,113,124,134},{15,24,33,53,69,75,83,91,99,100,101,102,103,105,106,107,108,109,115,126,136},{4,16,43,70,92,99,100,101,102,103,104,106,107,108,109,116,137},{5,44,54,71,76,84,93,99,100,101,102,103,104,105,107,108,109,117,138},{26,57,86,99,100,101,102,103,104,105,106,108,109,118},{9,27,36,48,58,73,77,87,97,99,100,101,102,103,104,105,106,107,109,130},{10,28,37,49,59,66,78,88,98,99,100,101,102,103,104,105,106,107,108,119,131,141},{0,29,38,50,60,89,99,111,112,113,114,115,116,117,118,119,120},{1,12,21,40,51,62,79,101,110,112,113,114,115,116,117,118,119,122,133},{2,13,22,31,52,68,80,102,110,111,113,114,115,116,117,118,119,123},{3,14,23,41,63,74,81,90,103,110,111,112,114,115,116,117,118,119,124,134},{32,42,82,110,111,112,113,115,116,117,118,119,125,135},{15,24,33,53,69,75,83,91,104,110,111,112,113,114,116,117,118,119,126,136},{4,16,43,70,92,105,110,111,112,113,114,115,117,118,119,137},{5,44,54,71,76,84,93,106,110,111,112,113,114,115,116,118,119,138},{26,57,86,107,110,111,112,113,114,115,116,117,119},{10,28,37,49,59,66,78,88,98,109,110,111,112,113,114,115,116,117,118,131,141},{0,29,38,50,60,89,99,110,121,122,123,124,125,126,127,128,129,130,131},{11,20,30,39,61,67,100,120,122,123,124,125,126,127,128,129,130,131,132},{1,12,21,40,51,62,79,101,111,120,121,123,124,125,126,127,128,129,130,131,133},{2,13,22,31,52,68,80,102,112,120,121,122,124,125,126,127,128,129,130,131},{3,14,23,41,63,74,81,90,103,113,120,121,122,123,125,126,127,128,129,130,131,134},{32,42,82,114,120,121,122,123,124,126,127,128,129,130,131,135},{15,24,33,53,69,75,83,91,104,115,120,121,122,123,124,125,127,128,129,130,131,136},{6,17,45,55,64,94,120,121,122,123,124,125,126,128,129,130,131},{7,18,25,34,46,56,65,85,95,120,121,122,123,124,125,126,127,129,130,131,139},{8,19,35,47,72,96,120,121,122,123,124,125,126,127,128,130,131,140},{9,27,36,48,58,73,77,87,97,108,120,121,122,123,124,125,126,127,128,129,131},{10,28,37,49,59,66,78,88,98,109,119,120,121,122,123,124,125,126,127,128,129,130,141},{11,20,30,39,61,67,100,121,133,134,135,136,137,138,139,140,141},{1,12,21,40,51,62,79,101,111,122,132,134,135,136,137,138,139,140,141},{3,14,23,41,63,74,81,90,103,113,124,132,133,135,136,137,138,139,140,141},{32,42,82,114,125,132,133,134,136,137,138,139,140,141},{15,24,33,53,69,75,83,91,104,115,126,132,133,134,135,137,138,139,140,141},{4,16,43,70,92,105,116,132,133,134,135,136,138,139,140,141},{5,44,54,71,76,84,93,106,117,132,133,134,135,136,137,139,140,141},{7,18,25,34,46,56,65,85,95,128,132,133,134,135,136,137,138,140,141},{8,19,35,47,72,96,129,132,133,134,135,136,137,138,139,141},{10,28,37,49,59,66,78,88,98,109,119,131,132,133,134,135,136,137,138,139,140}];
weights=[452,520,384,263,312,271,363,564,373,610,329,427,448,363,344,219,299,688,694,557,268,661,266,210,645,445,277,458,390,500,320,447,487,687,503,247,356,594,391,383,689,588,562,696,351,640,333,527,240,492,604,528,335,415,479,266,446,679,203,505,536,549,453,291,204,506,693,645,552,363,539,402,249,443,262,311,505,626,625,504,322,530,385,523,503,365,701,429,703,427,683,397,651,520,644,538,394,444,487,324,621,309,460,242,271,464,560,631,553,261,303,530,315,699,325,368,206,460,563,528,433,661,373,636,644,416,416,547,321,388,270,207,232,350,303,627,237,251,555,472,582,496];
